param set_len = 52;
param target_sum = 9826392378;
param values := [1] 110561392 [2] 111441645 [3] 225754670 [4] 67565614 [5] 79195078 [6] 582925314 [7] 38337599 [8] 281732642 [9] 557632883 [10] 151594256 [11] 25333082 [12] 57460973 [13] 957499644 [14] 464944661 [15] 438581529 [16] 933543143 [17] 471969341 [18] 249566654 [19] 553450488 [20] 1062136648 [21] 676693924 [22] 449465463 [23] 382901059 [24] 593220950 [25] 729198874 [26] 523304764 [27] 866490223 [28] 199008922 [29] 146322140 [30] 216676751 [31] 1036759547 [32] 656635687 [33] 788887986 [34] 579016246 [35] 331664387 [36] 167613952 [37] 285553361 [38] 384008320 [39] 243693587 [40] 117838437 [41] 824659428 [42] 553061393 [43] 313318463 [44] 244042949 [45] 689784941 [46] 994544628 [47] 111106115 [48] 370262962 [49] 1053126605 [50] 8788305 [51] 693375233 [52] 920962598 ;
